c Reduced graph for p10 generated by Cyril Grelier
p edge 16 32
e 1 3
e 1 5
e 1 6
e 1 8
e 2 4
e 2 7
e 2 9
e 2 12
e 3 5
e 3 6
e 3 10
e 4 7
e 4 11
e 4 12
e 5 6
e 5 13
e 6 14
e 7 12
e 7 15
e 8 10
e 8 13
e 8 14
e 9 11
e 9 15
e 9 16
e 10 13
e 10 14
e 11 15
e 11 16
e 12 16
e 13 14
e 15 16
